39
1 0 5
2 0 21
2 1 13
3 0 21
3 1 17
3 2 3
4 0 27
4 1 17
4 2 21
4 3 18
5 0 29
5 1 16
5 2 22
5 3 2
5 4 14
6 0 25
6 1 22
6 2 18
6 3 15
6 4 12
6 5 18
7 0 26
7 1 22
7 2 11
7 3 7
7 4 1
7 5 4
7 6 8
8 0 2
8 1 13
8 2 27
8 3 2
8 4 21
8 5 24
8 6 18
8 7 18
9 0 9
9 1 15
9 2 29
9 3 16
9 4 3
9 5 4
9 6 1
9 7 16
9 8 15
10 0 6
10 1 1
10 2 28
10 3 2
10 4 9
10 5 16
10 6 14
10 7 7
10 8 22
10 9 17
11 0 19
11 1 21
11 2 25
11 3 19
11 4 29
11 5 22
11 6 19
11 7 25
11 8 2
11 9 17
11 10 26
12 0 8
12 1 1
12 2 1
12 3 13
12 4 28
12 5 16
12 6 4
12 7 5
12 8 16
12 9 7
12 10 29
12 11 16
13 0 5
13 1 11
13 2 2
13 3 1
13 4 10
13 5 23
13 6 1
13 7 24
13 8 29
13 9 14
13 10 6
13 11 20
13 12 13
14 0 9
14 1 27
14 2 12
14 3 13
14 4 20
14 5 18
14 6 16
14 7 17
14 8 8
14 9 5
14 10 26
14 11 4
14 12 11
14 13 3
15 0 23
15 1 27
15 2 15
15 3 18
15 4 2
15 5 7
15 6 25
15 7 7
15 8 26
15 9 24
15 10 3
15 11 7
15 12 29
15 13 26
15 14 4
16 0 4
16 1 23
16 2 16
16 3 14
16 4 24
16 5 14
16 6 23
16 7 10
16 8 22
16 9 14
16 10 10
16 11 28
16 12 6
16 13 29
16 14 18
16 15 15
17 0 19
17 1 16
17 2 27
17 3 11
17 4 19
17 5 26
17 6 21
17 7 3
17 8 23
17 9 6
17 10 27
17 11 4
17 12 27
17 13 8
17 14 10
17 15 28
17 16 8
18 0 2
18 1 16
18 2 14
18 3 7
18 4 28
18 5 8
18 6 20
18 7 10
18 8 13
18 9 21
18 10 2
18 11 4
18 12 6
18 13 2
18 14 27
18 15 12
18 16 17
18 17 7
19 0 27
19 1 27
19 2 13
19 3 17
19 4 18
19 5 5
19 6 5
19 7 2
19 8 12
19 9 14
19 10 25
19 11 5
19 12 11
19 13 28
19 14 26
19 15 9
19 16 24
19 17 10
19 18 1
20 0 5
20 1 26
20 2 25
20 3 9
20 4 19
20 5 29
20 6 2
20 7 2
20 8 3
20 9 9
20 10 10
20 11 20
20 12 25
20 13 12
20 14 6
20 15 8
20 16 28
20 17 25
20 18 20
20 19 8
21 0 24
21 1 12
21 2 4
21 3 9
21 4 11
21 5 29
21 6 20
21 7 12
21 8 8
21 9 21
21 10 27
21 11 4
21 12 3
21 13 11
21 14 8
21 15 1
21 16 11
21 17 15
21 18 25
21 19 13
21 20 24
22 0 29
22 1 11
22 2 6
22 3 27
22 4 8
22 5 23
22 6 9
22 7 18
22 8 3
22 9 27
22 10 1
22 11 9
22 12 14
22 13 18
22 14 8
22 15 25
22 16 19
22 17 21
22 18 9
22 19 6
22 20 3
22 21 5
23 0 4
23 1 19
23 2 3
23 3 20
23 4 22
23 5 1
23 6 24
23 7 12
23 8 15
23 9 12
23 10 28
23 11 29
23 12 8
23 13 26
23 14 3
23 15 3
23 16 19
23 17 15
23 18 20
23 19 11
23 20 6
23 21 21
23 22 28
24 0 15
24 1 26
24 2 22
24 3 11
24 4 18
24 5 29
24 6 17
24 7 16
24 8 1
24 9 1
24 10 22
24 11 15
24 12 26
24 13 25
24 14 2
24 15 19
24 16 12
24 17 21
24 18 19
24 19 1
24 20 19
24 21 17
24 22 11
24 23 23
25 0 29
25 1 25
25 2 10
25 3 27
25 4 28
25 5 21
25 6 29
25 7 5
25 8 27
25 9 15
25 10 1
25 11 10
25 12 18
25 13 18
25 14 4
25 15 12
25 16 24
25 17 7
25 18 13
25 19 15
25 20 24
25 21 25
25 22 28
25 23 6
25 24 21
26 0 27
26 1 12
26 2 19
26 3 10
26 4 20
26 5 13
26 6 13
26 7 18
26 8 22
26 9 1
26 10 2
26 11 14
26 12 23
26 13 6
26 14 13
26 15 27
26 16 27
26 17 2
26 18 4
26 19 10
26 20 2
26 21 13
26 22 25
26 23 21
26 24 18
26 25 5
27 0 16
27 1 2
27 2 17
27 3 15
27 4 6
27 5 1
27 6 9
27 7 5
27 8 5
27 9 6
27 10 24
27 11 10
27 12 14
27 13 19
27 14 16
27 15 7
27 16 14
27 17 8
27 18 25
27 19 4
27 20 7
27 21 4
27 22 9
27 23 6
27 24 18
27 25 9
27 26 28
28 0 15
28 1 24
28 2 11
28 3 10
28 4 15
28 5 18
28 6 13
28 7 5
28 8 20
28 9 29
28 10 8
28 11 15
28 12 19
28 13 21
28 14 26
28 15 1
28 16 24
28 17 18
28 18 28
28 19 29
28 20 29
28 21 19
28 22 17
28 23 20
28 24 24
28 25 29
28 26 6
28 27 7
29 0 3
29 1 27
29 2 8
29 3 23
29 4 3
29 5 3
29 6 9
29 7 2
29 8 16
29 9 11
29 10 18
29 11 29
29 12 22
29 13 14
29 14 7
29 15 19
29 16 7
29 17 8
29 18 9
29 19 7
29 20 25
29 21 29
29 22 6
29 23 5
29 24 4
29 25 2
29 26 7
29 27 10
29 28 3
30 0 9
30 1 13
30 2 22
30 3 14
30 4 19
30 5 2
30 6 25
30 7 13
30 8 11
30 9 17
30 10 26
30 11 14
30 12 29
30 13 15
30 14 26
30 15 5
30 16 6
30 17 3
30 18 5
30 19 16
30 20 20
30 21 28
30 22 4
30 23 4
30 24 2
30 25 6
30 26 21
30 27 25
30 28 12
30 29 4
31 0 10
31 1 4
31 2 29
31 3 7
31 4 13
31 5 15
31 6 20
31 7 25
31 8 10
31 9 21
31 10 6
31 11 8
31 12 13
31 13 5
31 14 14
31 15 23
31 16 27
31 17 27
31 18 12
31 19 24
31 20 7
31 21 29
31 22 23
31 23 17
31 24 12
31 25 12
31 26 24
31 27 17
31 28 22
31 29 9
31 30 18
32 0 21
32 1 14
32 2 26
32 3 27
32 4 19
32 5 10
32 6 14
32 7 14
32 8 23
32 9 9
32 10 17
32 11 3
32 12 26
32 13 26
32 14 19
32 15 10
32 16 17
32 17 21
32 18 3
32 19 28
32 20 28
32 21 12
32 22 8
32 23 9
32 24 20
32 25 16
32 26 9
32 27 16
32 28 8
32 29 27
32 30 28
32 31 22
33 0 18
33 1 2
33 2 20
33 3 8
33 4 27
33 5 4
33 6 5
33 7 25
33 8 16
33 9 23
33 10 21
33 11 16
33 12 4
33 13 27
33 14 16
33 15 27
33 16 26
33 17 8
33 18 14
33 19 15
33 20 24
33 21 25
33 22 26
33 23 28
33 24 29
33 25 2
33 26 21
33 27 5
33 28 2
33 29 16
33 30 12
33 31 3
33 32 1
34 0 24
34 1 24
34 2 11
34 3 1
34 4 1
34 5 13
34 6 5
34 7 25
34 8 22
34 9 7
34 10 2
34 11 7
34 12 25
34 13 26
34 14 9
34 15 1
34 16 2
34 17 27
34 18 14
34 19 12
34 20 10
34 21 23
34 22 14
34 23 2
34 24 12
34 25 8
34 26 29
34 27 1
34 28 13
34 29 17
34 30 7
34 31 12
34 32 29
34 33 29
35 0 28
35 1 4
35 2 24
35 3 24
35 4 9
35 5 28
35 6 7
35 7 14
35 8 4
35 9 18
35 10 19
35 11 10
35 12 9
35 13 12
35 14 2
35 15 2
35 16 1
35 17 16
35 18 9
35 19 20
35 20 19
35 21 22
35 22 5
35 23 28
35 24 28
35 25 7
35 26 5
35 27 16
35 28 2
35 29 25
35 30 10
35 31 24
35 32 28
35 33 9
35 34 2
36 0 1
36 1 20
36 2 8
36 3 5
36 4 8
36 5 9
36 6 10
36 7 26
36 8 25
36 9 19
36 10 24
36 11 24
36 12 22
36 13 5
36 14 22
36 15 24
36 16 24
36 17 9
36 18 25
36 19 23
36 20 19
36 21 16
36 22 5
36 23 26
36 24 25
36 25 23
36 26 24
36 27 4
36 28 15
36 29 19
36 30 23
36 31 26
36 32 11
36 33 9
36 34 22
36 35 20
37 0 17
37 1 8
37 2 18
37 3 24
37 4 9
37 5 23
37 6 4
37 7 12
37 8 18
37 9 21
37 10 17
37 11 19
37 12 11
37 13 11
37 14 14
37 15 27
37 16 17
37 17 26
37 18 7
37 19 14
37 20 7
37 21 29
37 22 13
37 23 9
37 24 7
37 25 22
37 26 23
37 27 6
37 28 15
37 29 24
37 30 17
37 31 27
37 32 4
37 33 24
37 34 13
37 35 14
37 36 24
38 0 5
38 1 20
38 2 15
38 3 15
38 4 13
38 5 3
38 6 9
38 7 29
38 8 29
38 9 20
38 10 8
38 11 28
38 12 21
38 13 9
38 14 17
38 15 27
38 16 19
38 17 6
38 18 9
38 19 22
38 20 8
38 21 23
38 22 18
38 23 21
38 24 16
38 25 18
38 26 5
38 27 21
38 28 27
38 29 3
38 30 19
38 31 13
38 32 3
38 33 28
38 34 14
38 35 6
38 36 29
38 37 19
